qe/outputs/qe/qe_queries_cbrdelay_obs/T=5,eliminate=[I_0,I_1,I_2,I_3,I_4,L_1,L_2,L_3,L_4,C,B,lhs=Q_4].smt2
; benchmark generated from python API
(set-info :status unknown)
(declare-fun S_0 () Real)
(declare-fun S_1 () Real)
(declare-fun S_4 () Real)
(declare-fun S_2 () Real)
(declare-fun A_4 () Real)
(declare-fun Q_4 () Real)
(declare-fun L_0 () Real)
(declare-fun S_3 () Real)
(declare-fun A_1 () Real)
(declare-fun A_0 () Real)
(declare-fun A_3 () Real)
(declare-fun A_2 () Real)
(assert
 (let (($x2101 (<= (+ L_0 (* (- 1.0) A_0) (* (- 1.0) S_3) (* 2.0 S_1)) 0.0)))
 (let (($x34 (>= L_0 0.0)))
 (let ((?x2030 (* (/ 1.0 2.0) S_1)))
 (let ((?x452 (* (- 1.0) A_1)))
 (let ((?x436 (* (- 1.0) Q_4)))
 (let ((?x2026 (* (- (/ 1.0 2.0)) S_4)))
 (let (($x46563 (not (<= 0.0 (+ ?x2026 ?x436 A_4 ?x452 ?x2030)))))
 (let (($x44594 (not (<= 0.0 (+ S_4 ?x436 A_4 (* (- 1.0) A_3) (* (- 1.0) S_3))))))
 (let ((?x1034 (* (- 1.0) S_0)))
 (let ((?x1259 (* (- 2.0) S_3)))
 (let ((?x1556 (* 3.0 S_4)))
 (let ((?x1540 (* (- 3.0) Q_4)))
 (let (($x44531 (not (<= 0.0 (+ ?x1540 ?x1556 ?x1259 ?x1034)))))
 (let (($x17423 (not (<= (+ Q_4 (* (- 1.0) A_4) A_2) 0.0))))
 (let ((?x1272 (* (- 3.0) S_3)))
 (let ((?x2597 (* (- 2.0) A_2)))
 (let ((?x3069 (* 2.0 A_4)))
 (let ((?x2401 (* (- 2.0) Q_4)))
 (let ((?x3232 (* 2.0 S_4)))
 (let (($x46447 (not (<= 0.0 (+ ?x3232 ?x2401 ?x3069 ?x2597 ?x1272 S_0)))))
 (let ((?x1537 (* 3.0 S_0)))
 (let ((?x1548 (* (- 6.0) S_3)))
 (let ((?x1543 (* (- 3.0) A_1)))
 (let ((?x1553 (* 3.0 A_4)))
 (let (($x43861 (not (<= 0.0 (+ ?x1556 ?x1540 ?x1553 ?x1543 ?x1548 ?x1537)))))
 (let (($x44755 (not (<= 0.0 (+ ?x2401 ?x3232 (* (- 1.0) S_3) (* (- 1.0) S_1))))))
 (let (($x44514 (not (<= 0.0 (+ ?x2401 ?x3232 (* (- 1.0) A_0) (* (- 1.0) S_3) L_0)))))
 (let (($x46545 (not (<= 0.0 (+ (* (- 1.0) S_4) ?x1540 ?x1553 ?x1543 S_0)))))
 (let (($x44539 (not (<= (- 5.0) (+ ?x436 S_4 (* (- 1.0) S_3))))))
 (let (($x46604 (not (<= 0.0 (+ (* (- 3.0) S_4) ?x1540 ?x1553 ?x1543 (* 3.0 S_2))))))
 (let (($x44542 (not (<= 0.0 (+ ?x436 S_4 (* (- 1.0) S_2))))))
 (let (($x49433 (not (<= 0.0 (+ S_4 ?x2401 ?x3069 (* (- 2.0) A_3) (* (- 1.0) S_2))))))
 (let (($x49919 (not (<= (- 5.0) (+ ?x436 A_4 (* (- 1.0) A_3))))))
 (let (($x49954 (<= 0.0 (+ S_4 (* (- 4.0) Q_4) (* 4.0 A_4) (* (- 4.0) A_3) ?x1034))))
 (let (($x49955 (not $x49954)))
 (let (($x47470 (not (<= 0.0 (+ ?x2401 S_4 ?x1034)))))
 (let (($x100279 (or $x43861 $x44514 $x44594 (not (<= 0.0 (+ A_4 (* (- 1.0) A_2) (* (- 1.0) S_3) S_0))))))
 (let (($x45000 (not (<= 0.0 (+ S_4 ?x436 A_4 ?x452 ?x1272 (* 2.0 S_1))))))
 (let (($x44709 (not (<= 0.0 (+ S_4 ?x436 A_4 (* (- 1.0) A_2) ?x1259 S_1)))))
 (let (($x49419 (not (<= 0.0 (+ S_4 ?x1540 ?x1553 (* (- 3.0) A_3) (* (- 1.0) S_1))))))
 (let (($x46491 (not (<= 0.0 (+ (* (- (/ 3.0 2.0)) Q_4) S_4 (* (- 1.0) S_1))))))
 (let (($x49415 (<= 0.0 (+ S_4 ?x1540 ?x1553 (* (- 3.0) A_3) (* (- 1.0) A_0) L_0))))
 (let (($x49416 (not $x49415)))
 (let (($x46655 (not (<= 0.0 (+ (* (- (/ 3.0 2.0)) Q_4) S_4 (* (- 1.0) A_0) L_0)))))
 (let (($x50014 (<= 0.0 (+ S_4 ?x436 A_4 (* (- 1.0) A_3) (* (- 2.0) S_2) S_0))))
 (let (($x48832 (<= 0.0 (+ ?x3232 ?x2401 ?x3069 ?x2597 (* (- 6.0) S_2) (* 4.0 S_0)))))
 (let (($x46186 (<= 0.0 (+ ?x1556 ?x1540 ?x1553 ?x1543 (* (- 12.0) S_2) (* 9.0 S_0)))))
 (let (($x46187 (not $x46186)))
 (let (($x814 (= Q_4 0.0)))
 (let ((?x491 (* (- 1.0) S_1)))
 (let ((?x21210 (* 4.0 S_3)))
 (let ((?x1593 (* (- 3.0) A_4)))
 (let ((?x1592 (* 3.0 Q_4)))
 (let ((?x21775 (* (- 4.0) A_4)))
 (let ((?x20947 (* 4.0 Q_4)))
 (let ((?x21545 (* 4.0 L_0)))
 (let ((?x3052 (* 2.0 S_2)))
 (let ((?x978 (* (- 1.0) A_0)))
 (let ((?x440 (* (- 1.0) A_4)))
 (let ((?x2283 (* 2.0 L_0)))
 (let ((?x1999 (* (- (/ 1.0 3.0)) A_4)))
 (let ((?x2853 (* (/ 1.0 3.0) Q_4)))
 (let (($x96838 (or $x814 (<= (+ (* (/ 4.0 3.0) L_0) ?x2853 ?x1999 ?x978 (* (/ 4.0 3.0) S_1)) 0.0))))
 (let ((?x3916 (* (/ 3.0 2.0) Q_4)))
 (let (($x4708 (<= (+ (* (/ 3.0 2.0) L_0) ?x3916 (* (- (/ 3.0 2.0)) A_4) (* (/ 5.0 2.0) S_2) ?x1034) 0.0)))
 (let ((?x1795 (+ (* (/ 2.0 3.0) L_0) (* (/ 2.0 3.0) Q_4) (* (- (/ 2.0 3.0)) A_4) (* (/ 5.0 3.0) S_1) ?x1034)))
 (let ((?x4287 (+ (* (/ 1.0 2.0) L_0) (* (/ 1.0 2.0) Q_4) (* (- (/ 1.0 2.0)) A_4) (* (/ 1.0 2.0) S_2))))
 (let ((?x4647 (+ (* (/ 1.0 4.0) L_0) (* (/ 1.0 4.0) Q_4) (* (- (/ 1.0 4.0)) A_4) (* (/ 1.0 4.0) S_0))))
 (let ((?x480 (* (- 1.0) S_2)))
 (let ((?x1373 (* 3.0 S_3)))
 (let ((?x3322 (* (- 2.0) A_4)))
 (let ((?x2272 (* 2.0 Q_4)))
 (let (($x51134 (or $x814 (<= (+ (* (/ 1.0 3.0) L_0) ?x2853 ?x1999 (* (/ 1.0 3.0) S_1)) (- 5.0)))))
 (let (($x1403 (not (<= Q_4 0.0))))
 (let (($x44445 (or $x814 $x1403)))
 (let (($x114 (>= S_3 S_2)))
 (let (($x120 (>= A_2 A_1)))
 (let (($x108 (>= S_1 S_0)))
 (let (($x111 (>= S_2 S_1)))
 (let (($x117 (>= S_4 S_3)))
 (let (($x119 (>= A_1 A_0)))
 (let (($x121 (>= A_3 A_2)))
 (let (($x122 (>= A_4 A_3)))
 (and $x122 $x121 $x119 $x117 $x111 $x108 $x120 $x114 (<= (+ (* (/ 1.0 3.0) S_4) (* (- 1.0) S_3) (* (/ 2.0 3.0) S_1)) 0.0) $x44445 $x51134 (<= (+ (* (- (/ 3.0 2.0)) S_3) (* (/ 3.0 2.0) S_0)) (- 15.0)) (<= (+ ?x1556 ?x1548 ?x1537) 0.0) (<= (+ (* (- 3.0) S_4) (* 3.0 S_2)) (- 15.0)) (<= (+ ?x2026 L_0 ?x978 (* (/ 3.0 2.0) S_1)) 0.0) (<= (+ (* (/ 1.0 3.0) S_3) ?x480 (* (/ 2.0 3.0) S_0)) 0.0) (or $x1403 $x46563) (or $x1403 $x45000) (or $x1403 $x46604) (<= (+ (* (- 6.0) S_4) (* 9.0 S_2) (* (- 3.0) S_1)) 0.0) (<= (+ (* (- 2.0) S_4) L_0 ?x978 (* 3.0 S_2)) 0.0) (<= (+ ?x2026 ?x2030) (- 5.0)) (or $x814 (<= (+ ?x2283 ?x2272 ?x3322 ?x1373 ?x480) 0.0)) (or $x814 (<= (+ ?x21545 ?x1592 ?x1593 ?x978 ?x21210) 0.0)) (or $x814 (<= ?x4647 (- 5.0))) (<= (+ S_4 (* (- 4.0) S_2) ?x1537) 0.0) (or $x814 (<= ?x4287 (- 5.0))) (or $x814 (<= ?x1795 0.0)) (or $x814 $x4708) (or $x814 (<= (+ L_0 Q_4 ?x440 ?x3052 ?x491) 0.0)) $x96838 (or $x814 (<= (+ ?x2283 Q_4 ?x440 ?x978 ?x3052) 0.0)) (or $x814 (<= (+ ?x21545 ?x20947 ?x21775 (* 5.0 S_3) ?x1034) 0.0)) (or $x1403 $x46545) (or $x1403 $x43861) (or $x1403 $x46187) (or $x814 (<= (+ (* 3.0 L_0) ?x1592 ?x1593 ?x21210 ?x491) 0.0)) (or $x814 (<= (+ L_0 Q_4 ?x440 S_3) (- 5.0))) (or $x17423 $x46563 $x47470 $x49955) (or $x17423 $x46604 $x47470 $x49955) (or $x17423 $x46604 $x46655 $x49416) (or $x17423 (not (<= Q_4 10.0)) $x46604 $x49919) (or $x44542 $x46187 (not $x48832) (not $x50014)) (or $x17423 $x46545 $x46655 $x49416) (or $x17423 (not (<= Q_4 10.0)) $x46563 $x49919) (or $x44539 $x44594 $x44709 $x45000) (or (not (<= 0.0 (+ ?x2401 ?x1556 ?x1272))) $x44594 $x44709 $x45000) (or $x17423 $x44542 $x46563 $x49433) (or $x17423 $x44539 $x44594 $x46563) (or $x17423 $x46563 $x46655 $x49416) (or $x44531 $x44594 $x44709 $x45000) (or $x44514 $x44594 $x44709 $x45000) (or $x17423 $x46491 $x46545 $x49419) (or $x43861 $x44539 $x44594 $x46447) (or $x17423 $x44594 $x44755 $x46604) (or $x17423 $x46491 $x46604 $x49419) (or $x44542 $x44594 $x44709 $x45000) (or $x17423 $x44539 $x44594 $x46604) $x100279 (or $x17423 $x43861 $x44531 $x44594) (or $x43861 (not (<= 0.0 (+ ?x2401 ?x1556 ?x1272))) $x44594 $x46447) (or $x17423 $x46545 $x47470 $x49955) (or $x17423 (not (<= Q_4 10.0)) $x46545 $x49919) (or (not (<= (- 5.0) (+ (* (- 1.0) A_2) A_1))) $x44539 $x46545 $x49919) (or $x17423 $x43861 $x44542 $x44594) (or $x43861 $x44542 $x44594 $x46447) (or $x17423 $x44542 $x46545 $x49433) (or $x17423 $x44542 $x44594 $x46545) (or $x17423 $x44542 $x44594 $x46563) (or $x17423 $x44514 $x44594 $x46604) (or $x17423 $x44531 $x44594 $x46604) (or $x17423 $x44594 $x44755 $x46545) (or $x17423 $x44539 $x44594 $x46545) (or $x17423 $x44531 $x44594 $x46545) (or $x17423 $x44514 $x44594 $x46563) (or $x17423 $x44514 $x44594 $x46545) (or $x43861 $x44514 $x44594 $x46447) (or $x43861 $x44594 $x44755 $x46447) (or $x43861 $x44531 $x44594 $x46447) (or $x17423 $x44531 $x44594 $x46563) $x34 (<= (+ L_0 ?x978 S_0) 0.0) (<= (+ (* (- (/ 1.0 3.0)) S_4) (* (/ 1.0 3.0) S_0)) (- 5.0)) (<= (+ (* (- 1.0) S_3) S_1) (- 5.0)) $x2101 (not (>= (+ S_4 ?x452 L_0) 0.0)) (<= (+ ?x1259 (* 3.0 S_1) ?x1034) 0.0) (<= (+ S_4 L_0 Q_4 ?x440) 0.0) (<= (+ ?x480 S_0) (- 5.0)) (<= (+ (* (- 3.0) S_4) (* 4.0 S_2) ?x1034) 0.0) (<= (+ (* (- 1.0) S_4) (* 2.0 S_1) ?x1034) 0.0))))))))))))))))))))))))))))))))))))))))))))))))))))))))))))))))))))))))))))))))))))))
(check-sat)
